21 67 183 4 170 109 83 130 175 71 0 152 164 34 51 178 153 172 107 101 196 112 79 15 19 84 82 190 167 113 65 1 80 119 159 88 58 168 105 151 2 134 89 133 132 53 177 150 155 162 86 143 131 20 92 5 40 127 98 191 116 145 91 57 49 197 31 64 55 157 158 137 70 128 73 136 24 147 48 144 27 149 77 90 124 184 18 96 118 142 23 97 47 16 36 163 35 169 156 154 87 76 180 117 111 129 61 135 121 179 146 148 106 194 115 123 17 139 140 14 138 59 171 193 69 6 26 74 44 32 8 30 186 187 46 68 93 41 43 114 72 7 54 182 103 62 126 56 160 102 165 60 174 95 108 104 66 110 141 63 12 199 28 100 85 39 33 173 181 13 176 75 188 120 185 45 122 37 166 25 10 99 38 81 192 94 3 42 11 50 198 52 161 189 29 22 78 125 195 9 

